c description: Graph 4-Colorability of graph: 
c generator: CNFgen (0.9.0)
c copyright: (C) 2012-2020 Massimo Lauria <massimo.lauria@uniroma1.it>
c url: https://massimolauria.net/cnfgen
c
p cnf 200 1126
1 2 3 4 0
-1 -2 0
-1 -3 0
-1 -4 0
-2 -3 0
-2 -4 0
-3 -4 0
5 6 7 8 0
-5 -6 0
-5 -7 0
-5 -8 0
-6 -7 0
-6 -8 0
-7 -8 0
9 10 11 12 0
-9 -10 0
-9 -11 0
-9 -12 0
-10 -11 0
-10 -12 0
-11 -12 0
13 14 15 16 0
-13 -14 0
-13 -15 0
-13 -16 0
-14 -15 0
-14 -16 0
-15 -16 0
17 18 19 20 0
-17 -18 0
-17 -19 0
-17 -20 0
-18 -19 0
-18 -20 0
-19 -20 0
21 22 23 24 0
-21 -22 0
-21 -23 0
-21 -24 0
-22 -23 0
-22 -24 0
-23 -24 0
25 26 27 28 0
-25 -26 0
-25 -27 0
-25 -28 0
-26 -27 0
-26 -28 0
-27 -28 0
29 30 31 32 0
-29 -30 0
-29 -31 0
-29 -32 0
-30 -31 0
-30 -32 0
-31 -32 0
33 34 35 36 0
-33 -34 0
-33 -35 0
-33 -36 0
-34 -35 0
-34 -36 0
-35 -36 0
37 38 39 40 0
-37 -38 0
-37 -39 0
-37 -40 0
-38 -39 0
-38 -40 0
-39 -40 0
41 42 43 44 0
-41 -42 0
-41 -43 0
-41 -44 0
-42 -43 0
-42 -44 0
-43 -44 0
45 46 47 48 0
-45 -46 0
-45 -47 0
-45 -48 0
-46 -47 0
-46 -48 0
-47 -48 0
49 50 51 52 0
-49 -50 0
-49 -51 0
-49 -52 0
-50 -51 0
-50 -52 0
-51 -52 0
53 54 55 56 0
-53 -54 0
-53 -55 0
-53 -56 0
-54 -55 0
-54 -56 0
-55 -56 0
57 58 59 60 0
-57 -58 0
-57 -59 0
-57 -60 0
-58 -59 0
-58 -60 0
-59 -60 0
61 62 63 64 0
-61 -62 0
-61 -63 0
-61 -64 0
-62 -63 0
-62 -64 0
-63 -64 0
65 66 67 68 0
-65 -66 0
-65 -67 0
-65 -68 0
-66 -67 0
-66 -68 0
-67 -68 0
69 70 71 72 0
-69 -70 0
-69 -71 0
-69 -72 0
-70 -71 0
-70 -72 0
-71 -72 0
73 74 75 76 0
-73 -74 0
-73 -75 0
-73 -76 0
-74 -75 0
-74 -76 0
-75 -76 0
77 78 79 80 0
-77 -78 0
-77 -79 0
-77 -80 0
-78 -79 0
-78 -80 0
-79 -80 0
81 82 83 84 0
-81 -82 0
-81 -83 0
-81 -84 0
-82 -83 0
-82 -84 0
-83 -84 0
85 86 87 88 0
-85 -86 0
-85 -87 0
-85 -88 0
-86 -87 0
-86 -88 0
-87 -88 0
89 90 91 92 0
-89 -90 0
-89 -91 0
-89 -92 0
-90 -91 0
-90 -92 0
-91 -92 0
93 94 95 96 0
-93 -94 0
-93 -95 0
-93 -96 0
-94 -95 0
-94 -96 0
-95 -96 0
97 98 99 100 0
-97 -98 0
-97 -99 0
-97 -100 0
-98 -99 0
-98 -100 0
-99 -100 0
101 102 103 104 0
-101 -102 0
-101 -103 0
-101 -104 0
-102 -103 0
-102 -104 0
-103 -104 0
105 106 107 108 0
-105 -106 0
-105 -107 0
-105 -108 0
-106 -107 0
-106 -108 0
-107 -108 0
109 110 111 112 0
-109 -110 0
-109 -111 0
-109 -112 0
-110 -111 0
-110 -112 0
-111 -112 0
113 114 115 116 0
-113 -114 0
-113 -115 0
-113 -116 0
-114 -115 0
-114 -116 0
-115 -116 0
117 118 119 120 0
-117 -118 0
-117 -119 0
-117 -120 0
-118 -119 0
-118 -120 0
-119 -120 0
121 122 123 124 0
-121 -122 0
-121 -123 0
-121 -124 0
-122 -123 0
-122 -124 0
-123 -124 0
125 126 127 128 0
-125 -126 0
-125 -127 0
-125 -128 0
-126 -127 0
-126 -128 0
-127 -128 0
129 130 131 132 0
-129 -130 0
-129 -131 0
-129 -132 0
-130 -131 0
-130 -132 0
-131 -132 0
133 134 135 136 0
-133 -134 0
-133 -135 0
-133 -136 0
-134 -135 0
-134 -136 0
-135 -136 0
137 138 139 140 0
-137 -138 0
-137 -139 0
-137 -140 0
-138 -139 0
-138 -140 0
-139 -140 0
141 142 143 144 0
-141 -142 0
-141 -143 0
-141 -144 0
-142 -143 0
-142 -144 0
-143 -144 0
145 146 147 148 0
-145 -146 0
-145 -147 0
-145 -148 0
-146 -147 0
-146 -148 0
-147 -148 0
149 150 151 152 0
-149 -150 0
-149 -151 0
-149 -152 0
-150 -151 0
-150 -152 0
-151 -152 0
153 154 155 156 0
-153 -154 0
-153 -155 0
-153 -156 0
-154 -155 0
-154 -156 0
-155 -156 0
157 158 159 160 0
-157 -158 0
-157 -159 0
-157 -160 0
-158 -159 0
-158 -160 0
-159 -160 0
161 162 163 164 0
-161 -162 0
-161 -163 0
-161 -164 0
-162 -163 0
-162 -164 0
-163 -164 0
165 166 167 168 0
-165 -166 0
-165 -167 0
-165 -168 0
-166 -167 0
-166 -168 0
-167 -168 0
169 170 171 172 0
-169 -170 0
-169 -171 0
-169 -172 0
-170 -171 0
-170 -172 0
-171 -172 0
173 174 175 176 0
-173 -174 0
-173 -175 0
-173 -176 0
-174 -175 0
-174 -176 0
-175 -176 0
177 178 179 180 0
-177 -178 0
-177 -179 0
-177 -180 0
-178 -179 0
-178 -180 0
-179 -180 0
181 182 183 184 0
-181 -182 0
-181 -183 0
-181 -184 0
-182 -183 0
-182 -184 0
-183 -184 0
185 186 187 188 0
-185 -186 0
-185 -187 0
-185 -188 0
-186 -187 0
-186 -188 0
-187 -188 0
189 190 191 192 0
-189 -190 0
-189 -191 0
-189 -192 0
-190 -191 0
-190 -192 0
-191 -192 0
193 194 195 196 0
-193 -194 0
-193 -195 0
-193 -196 0
-194 -195 0
-194 -196 0
-195 -196 0
197 198 199 200 0
-197 -198 0
-197 -199 0
-197 -200 0
-198 -199 0
-198 -200 0
-199 -200 0
-1 -5 0
-2 -6 0
-3 -7 0
-4 -8 0
-1 -9 0
-2 -10 0
-3 -11 0
-4 -12 0
-1 -17 0
-2 -18 0
-3 -19 0
-4 -20 0
-1 -21 0
-2 -22 0
-3 -23 0
-4 -24 0
-1 -45 0
-2 -46 0
-3 -47 0
-4 -48 0
-1 -113 0
-2 -114 0
-3 -115 0
-4 -116 0
-5 -33 0
-6 -34 0
-7 -35 0
-8 -36 0
-5 -57 0
-6 -58 0
-7 -59 0
-8 -60 0
-5 -81 0
-6 -82 0
-7 -83 0
-8 -84 0
-5 -97 0
-6 -98 0
-7 -99 0
-8 -100 0
-5 -109 0
-6 -110 0
-7 -111 0
-8 -112 0
-5 -129 0
-6 -130 0
-7 -131 0
-8 -132 0
-5 -169 0
-6 -170 0
-7 -171 0
-8 -172 0
-5 -177 0
-6 -178 0
-7 -179 0
-8 -180 0
-5 -193 0
-6 -194 0
-7 -195 0
-8 -196 0
-9 -53 0
-10 -54 0
-11 -55 0
-12 -56 0
-9 -61 0
-10 -62 0
-11 -63 0
-12 -64 0
-9 -117 0
-10 -118 0
-11 -119 0
-12 -120 0
-9 -125 0
-10 -126 0
-11 -127 0
-12 -128 0
-9 -129 0
-10 -130 0
-11 -131 0
-12 -132 0
-9 -153 0
-10 -154 0
-11 -155 0
-12 -156 0
-9 -177 0
-10 -178 0
-11 -179 0
-12 -180 0
-13 -45 0
-14 -46 0
-15 -47 0
-16 -48 0
-13 -77 0
-14 -78 0
-15 -79 0
-16 -80 0
-13 -101 0
-14 -102 0
-15 -103 0
-16 -104 0
-13 -105 0
-14 -106 0
-15 -107 0
-16 -108 0
-13 -177 0
-14 -178 0
-15 -179 0
-16 -180 0
-13 -181 0
-14 -182 0
-15 -183 0
-16 -184 0
-17 -29 0
-18 -30 0
-19 -31 0
-20 -32 0
-17 -93 0
-18 -94 0
-19 -95 0
-20 -96 0
-17 -153 0
-18 -154 0
-19 -155 0
-20 -156 0
-21 -37 0
-22 -38 0
-23 -39 0
-24 -40 0
-21 -45 0
-22 -46 0
-23 -47 0
-24 -48 0
-21 -77 0
-22 -78 0
-23 -79 0
-24 -80 0
-21 -89 0
-22 -90 0
-23 -91 0
-24 -92 0
-21 -109 0
-22 -110 0
-23 -111 0
-24 -112 0
-21 -117 0
-22 -118 0
-23 -119 0
-24 -120 0
-21 -125 0
-22 -126 0
-23 -127 0
-24 -128 0
-25 -37 0
-26 -38 0
-27 -39 0
-28 -40 0
-25 -53 0
-26 -54 0
-27 -55 0
-28 -56 0
-25 -137 0
-26 -138 0
-27 -139 0
-28 -140 0
-25 -145 0
-26 -146 0
-27 -147 0
-28 -148 0
-25 -153 0
-26 -154 0
-27 -155 0
-28 -156 0
-25 -181 0
-26 -182 0
-27 -183 0
-28 -184 0
-25 -193 0
-26 -194 0
-27 -195 0
-28 -196 0
-29 -33 0
-30 -34 0
-31 -35 0
-32 -36 0
-29 -37 0
-30 -38 0
-31 -39 0
-32 -40 0
-29 -45 0
-30 -46 0
-31 -47 0
-32 -48 0
-29 -57 0
-30 -58 0
-31 -59 0
-32 -60 0
-29 -69 0
-30 -70 0
-31 -71 0
-32 -72 0
-29 -113 0
-30 -114 0
-31 -115 0
-32 -116 0
-29 -121 0
-30 -122 0
-31 -123 0
-32 -124 0
-29 -125 0
-30 -126 0
-31 -127 0
-32 -128 0
-29 -169 0
-30 -170 0
-31 -171 0
-32 -172 0
-29 -173 0
-30 -174 0
-31 -175 0
-32 -176 0
-29 -181 0
-30 -182 0
-31 -183 0
-32 -184 0
-33 -121 0
-34 -122 0
-35 -123 0
-36 -124 0
-33 -129 0
-34 -130 0
-35 -131 0
-36 -132 0
-33 -141 0
-34 -142 0
-35 -143 0
-36 -144 0
-33 -149 0
-34 -150 0
-35 -151 0
-36 -152 0
-33 -153 0
-34 -154 0
-35 -155 0
-36 -156 0
-33 -157 0
-34 -158 0
-35 -159 0
-36 -160 0
-37 -41 0
-38 -42 0
-39 -43 0
-40 -44 0
-37 -61 0
-38 -62 0
-39 -63 0
-40 -64 0
-37 -89 0
-38 -90 0
-39 -91 0
-40 -92 0
-37 -109 0
-38 -110 0
-39 -111 0
-40 -112 0
-37 -157 0
-38 -158 0
-39 -159 0
-40 -160 0
-37 -173 0
-38 -174 0
-39 -175 0
-40 -176 0
-41 -53 0
-42 -54 0
-43 -55 0
-44 -56 0
-41 -65 0
-42 -66 0
-43 -67 0
-44 -68 0
-41 -133 0
-42 -134 0
-43 -135 0
-44 -136 0
-41 -169 0
-42 -170 0
-43 -171 0
-44 -172 0
-45 -49 0
-46 -50 0
-47 -51 0
-48 -52 0
-45 -57 0
-46 -58 0
-47 -59 0
-48 -60 0
-45 -77 0
-46 -78 0
-47 -79 0
-48 -80 0
-45 -93 0
-46 -94 0
-47 -95 0
-48 -96 0
-45 -129 0
-46 -130 0
-47 -131 0
-48 -132 0
-45 -145 0
-46 -146 0
-47 -147 0
-48 -148 0
-45 -165 0
-46 -166 0
-47 -167 0
-48 -168 0
-45 -177 0
-46 -178 0
-47 -179 0
-48 -180 0
-45 -193 0
-46 -194 0
-47 -195 0
-48 -196 0
-49 -53 0
-50 -54 0
-51 -55 0
-52 -56 0
-49 -65 0
-50 -66 0
-51 -67 0
-52 -68 0
-49 -69 0
-50 -70 0
-51 -71 0
-52 -72 0
-49 -73 0
-50 -74 0
-51 -75 0
-52 -76 0
-49 -77 0
-50 -78 0
-51 -79 0
-52 -80 0
-49 -81 0
-50 -82 0
-51 -83 0
-52 -84 0
-49 -85 0
-50 -86 0
-51 -87 0
-52 -88 0
-49 -89 0
-50 -90 0
-51 -91 0
-52 -92 0
-49 -97 0
-50 -98 0
-51 -99 0
-52 -100 0
-49 -109 0
-50 -110 0
-51 -111 0
-52 -112 0
-49 -137 0
-50 -138 0
-51 -139 0
-52 -140 0
-49 -141 0
-50 -142 0
-51 -143 0
-52 -144 0
-49 -157 0
-50 -158 0
-51 -159 0
-52 -160 0
-49 -185 0
-50 -186 0
-51 -187 0
-52 -188 0
-49 -197 0
-50 -198 0
-51 -199 0
-52 -200 0
-53 -81 0
-54 -82 0
-55 -83 0
-56 -84 0
-53 -85 0
-54 -86 0
-55 -87 0
-56 -88 0
-53 -129 0
-54 -130 0
-55 -131 0
-56 -132 0
-53 -161 0
-54 -162 0
-55 -163 0
-56 -164 0
-53 -193 0
-54 -194 0
-55 -195 0
-56 -196 0
-53 -197 0
-54 -198 0
-55 -199 0
-56 -200 0
-57 -73 0
-58 -74 0
-59 -75 0
-60 -76 0
-57 -97 0
-58 -98 0
-59 -99 0
-60 -100 0
-57 -133 0
-58 -134 0
-59 -135 0
-60 -136 0
-57 -173 0
-58 -174 0
-59 -175 0
-60 -176 0
-61 -105 0
-62 -106 0
-63 -107 0
-64 -108 0
-61 -189 0
-62 -190 0
-63 -191 0
-64 -192 0
-65 -125 0
-66 -126 0
-67 -127 0
-68 -128 0
-65 -133 0
-66 -134 0
-67 -135 0
-68 -136 0
-65 -141 0
-66 -142 0
-67 -143 0
-68 -144 0
-65 -169 0
-66 -170 0
-67 -171 0
-68 -172 0
-65 -173 0
-66 -174 0
-67 -175 0
-68 -176 0
-69 -105 0
-70 -106 0
-71 -107 0
-72 -108 0
-69 -117 0
-70 -118 0
-71 -119 0
-72 -120 0
-69 -173 0
-70 -174 0
-71 -175 0
-72 -176 0
-73 -85 0
-74 -86 0
-75 -87 0
-76 -88 0
-73 -121 0
-74 -122 0
-75 -123 0
-76 -124 0
-73 -129 0
-74 -130 0
-75 -131 0
-76 -132 0
-73 -157 0
-74 -158 0
-75 -159 0
-76 -160 0
-73 -197 0
-74 -198 0
-75 -199 0
-76 -200 0
-77 -85 0
-78 -86 0
-79 -87 0
-80 -88 0
-77 -101 0
-78 -102 0
-79 -103 0
-80 -104 0
-77 -117 0
-78 -118 0
-79 -119 0
-80 -120 0
-77 -133 0
-78 -134 0
-79 -135 0
-80 -136 0
-81 -89 0
-82 -90 0
-83 -91 0
-84 -92 0
-81 -113 0
-82 -114 0
-83 -115 0
-84 -116 0
-81 -133 0
-82 -134 0
-83 -135 0
-84 -136 0
-81 -169 0
-82 -170 0
-83 -171 0
-84 -172 0
-81 -177 0
-82 -178 0
-83 -179 0
-84 -180 0
-81 -185 0
-82 -186 0
-83 -187 0
-84 -188 0
-85 -121 0
-86 -122 0
-87 -123 0
-88 -124 0
-85 -157 0
-86 -158 0
-87 -159 0
-88 -160 0
-85 -193 0
-86 -194 0
-87 -195 0
-88 -196 0
-89 -109 0
-90 -110 0
-91 -111 0
-92 -112 0
-89 -121 0
-90 -122 0
-91 -123 0
-92 -124 0
-89 -165 0
-90 -166 0
-91 -167 0
-92 -168 0
-93 -97 0
-94 -98 0
-95 -99 0
-96 -100 0
-93 -149 0
-94 -150 0
-95 -151 0
-96 -152 0
-97 -133 0
-98 -134 0
-99 -135 0
-100 -136 0
-97 -153 0
-98 -154 0
-99 -155 0
-100 -156 0
-97 -157 0
-98 -158 0
-99 -159 0
-100 -160 0
-97 -189 0
-98 -190 0
-99 -191 0
-100 -192 0
-101 -169 0
-102 -170 0
-103 -171 0
-104 -172 0
-105 -109 0
-106 -110 0
-107 -111 0
-108 -112 0
-105 -113 0
-106 -114 0
-107 -115 0
-108 -116 0
-105 -117 0
-106 -118 0
-107 -119 0
-108 -120 0
-105 -149 0
-106 -150 0
-107 -151 0
-108 -152 0
-105 -161 0
-106 -162 0
-107 -163 0
-108 -164 0
-105 -169 0
-106 -170 0
-107 -171 0
-108 -172 0
-109 -149 0
-110 -150 0
-111 -151 0
-112 -152 0
-109 -157 0
-110 -158 0
-111 -159 0
-112 -160 0
-109 -181 0
-110 -182 0
-111 -183 0
-112 -184 0
-109 -193 0
-110 -194 0
-111 -195 0
-112 -196 0
-113 -173 0
-114 -174 0
-115 -175 0
-116 -176 0
-113 -193 0
-114 -194 0
-115 -195 0
-116 -196 0
-117 -169 0
-118 -170 0
-119 -171 0
-120 -172 0
-117 -173 0
-118 -174 0
-119 -175 0
-120 -176 0
-117 -181 0
-118 -182 0
-119 -183 0
-120 -184 0
-117 -185 0
-118 -186 0
-119 -187 0
-120 -188 0
-121 -165 0
-122 -166 0
-123 -167 0
-124 -168 0
-121 -173 0
-122 -174 0
-123 -175 0
-124 -176 0
-121 -193 0
-122 -194 0
-123 -195 0
-124 -196 0
-125 -137 0
-126 -138 0
-127 -139 0
-128 -140 0
-125 -141 0
-126 -142 0
-127 -143 0
-128 -144 0
-129 -173 0
-130 -174 0
-131 -175 0
-132 -176 0
-129 -181 0
-130 -182 0
-131 -183 0
-132 -184 0
-129 -185 0
-130 -186 0
-131 -187 0
-132 -188 0
-137 -153 0
-138 -154 0
-139 -155 0
-140 -156 0
-137 -161 0
-138 -162 0
-139 -163 0
-140 -164 0
-137 -193 0
-138 -194 0
-139 -195 0
-140 -196 0
-141 -157 0
-142 -158 0
-143 -159 0
-144 -160 0
-141 -161 0
-142 -162 0
-143 -163 0
-144 -164 0
-141 -165 0
-142 -166 0
-143 -167 0
-144 -168 0
-141 -185 0
-142 -186 0
-143 -187 0
-144 -188 0
-153 -157 0
-154 -158 0
-155 -159 0
-156 -160 0
-153 -165 0
-154 -166 0
-155 -167 0
-156 -168 0
-153 -169 0
-154 -170 0
-155 -171 0
-156 -172 0
-153 -185 0
-154 -186 0
-155 -187 0
-156 -188 0
-153 -189 0
-154 -190 0
-155 -191 0
-156 -192 0
-157 -161 0
-158 -162 0
-159 -163 0
-160 -164 0
-157 -165 0
-158 -166 0
-159 -167 0
-160 -168 0
-157 -185 0
-158 -186 0
-159 -187 0
-160 -188 0
-161 -165 0
-162 -166 0
-163 -167 0
-164 -168 0
-161 -169 0
-162 -170 0
-163 -171 0
-164 -172 0
-161 -185 0
-162 -186 0
-163 -187 0
-164 -188 0
-161 -197 0
-162 -198 0
-163 -199 0
-164 -200 0
-165 -173 0
-166 -174 0
-167 -175 0
-168 -176 0
-165 -181 0
-166 -182 0
-167 -183 0
-168 -184 0
-165 -189 0
-166 -190 0
-167 -191 0
-168 -192 0
-169 -193 0
-170 -194 0
-171 -195 0
-172 -196 0
-173 -197 0
-174 -198 0
-175 -199 0
-176 -200 0
-177 -193 0
-178 -194 0
-179 -195 0
-180 -196 0
-181 -193 0
-182 -194 0
-183 -195 0
-184 -196 0